200
75 75
1 52 727
2 52 534
3 52 915
4 52 358
5 51 456
6 51 979
7 50 452
8 50 181
9 50 880
10 50 808
11 50 624
12 50 851
13 50 379
14 49 466
15 49 730
16 49 329
17 49 897
18 49 943
19 48 888
20 48 354
21 48 658
22 48 357
23 48 536
24 48 95
25 48 868
26 47 549
27 47 620
28 47 971
29 47 482
30 47 697
31 47 752
32 47 42
33 47 435
34 46 898
35 46 508
36 46 727
37 46 151
38 46 968
39 46 450
40 46 392
41 46 211
42 46 644
43 46 399
44 45 990
45 45 109
46 45 728
47 45 108
48 44 869
49 44 209
50 44 291
51 44 225
52 44 231
53 44 223
54 43 196
55 43 94
56 43 335
57 43 720
58 43 846
59 43 571
60 43 728
61 42 442
62 42 383
63 42 222
64 42 59
65 42 517
66 42 393
67 41 237
68 41 371
69 41 867
70 41 666
71 41 918
72 40 58
73 40 287
74 40 843
75 40 976
76 40 986
77 39 851
78 39 349
79 39 262
80 39 202
81 39 141
82 39 61
83 39 561
84 38 800
85 38 221
86 38 745
87 37 119
88 37 452
89 37 263
90 37 581
91 37 779
92 37 736
93 37 8
94 36 436
95 36 681
96 36 918
97 36 155
98 36 303
99 36 824
100 35 432
101 35 361
102 35 473
103 35 502
104 35 259
105 35 505
106 35 304
107 35 61
108 35 814
109 34 335
110 34 141
111 34 160
112 34 210
113 34 510
114 34 414
115 33 506
116 33 216
117 33 809
118 33 376
119 33 769
120 32 843
121 32 338
122 32 472
123 32 659
124 31 881
125 31 580
126 31 157
127 31 572
128 31 581
129 31 384
130 31 424
131 31 493
132 31 960
133 31 502
134 30 725
135 30 125
136 29 921
137 29 372
138 29 666
139 29 152
140 29 2
141 28 732
142 28 727
143 28 993
144 28 256
145 28 98
146 28 547
147 28 451
148 28 563
149 27 876
150 26 524
151 26 576
152 25 464
153 25 599
154 25 186
155 25 684
156 25 470
157 25 596
158 24 573
159 24 716
160 24 610
161 24 535
162 23 721
163 23 857
164 22 302
165 22 471
166 22 630
167 20 777
168 20 789
169 20 724
170 20 440
171 20 145
172 20 385
173 20 343
174 20 620
175 20 555
176 20 436
177 20 637
178 19 466
179 19 85
180 19 889
181 19 829
182 19 798
183 19 243
184 18 618
185 18 346
186 18 926
187 18 321
188 18 881
189 17 165
190 16 857
191 16 329
192 16 207
193 16 407
194 16 645
195 16 700
196 15 708
197 15 859
198 15 396
199 15 71
200 15 810
